1006,457
948,542
672,434
727,110
736,235
738,388
1045,142
776,219
880,470
450,860
716,454
755,634
1137,554
769,285
945,770
269,705
1081,610
745,605
937,489
681,16
521,487
708,459
539,360
858,753
494,501
539,360
1020,745
681,706
740,415
